benchmarks/VRPTW/TSPTW/solution/n60w140.001.txt.solution
1 19 4 33 34 41 8 56 30 18 12 45 7 59 22 43 29 9 57 25 20 16 40 13 5 26 3 15 53 55 28 60 37 46 58 48 32 44 17 36 47 21 54 10 51 38 35 27 6 49 50 39 52 11 24 31 42 14 2 61 23 
423
